c cksystemsgroup.github.io/unicorn
c CNF contains a total of 916 clauses.
c CNF contains a total of 281 variables.
c CNF clauses cover 1 bad states.
c Variable name mapping (81 names):
c   2: input[bit=39]
c   5: input[bit=38]
c   8: input[bit=37]
c   11: input[bit=36]
c   14: input[bit=35]
c   17: input[bit=34]
c   20: input[bit=33]
c   23: input[bit=32]
c   26: input[bit=31]
c   29: input[bit=30]
c   32: input[bit=29]
c   35: input[bit=28]
c   38: input[bit=27]
c   41: input[bit=26]
c   44: input[bit=25]
c   47: input[bit=24]
c   50: input[bit=23]
c   53: input[bit=22]
c   56: input[bit=21]
c   59: input[bit=20]
c   62: input[bit=19]
c   65: input[bit=18]
c   68: input[bit=17]
c   71: input[bit=16]
c   74: input[bit=15]
c   77: input[bit=14]
c   80: input[bit=13]
c   83: input[bit=12]
c   86: input[bit=11]
c   89: input[bit=10]
c   92: input[bit=9]
c   95: input[bit=8]
c   98: input[bit=7]
c   101: input[bit=6]
c   104: input[bit=5]
c   107: input[bit=4]
c   110: input[bit=3]
c   113: input[bit=2]
c   116: input[bit=1]
c   119: input[bit=0]
c   161: input[bit=39]
c   163: input[bit=38]
c   165: input[bit=37]
c   167: input[bit=36]
c   169: input[bit=35]
c   171: input[bit=34]
c   173: input[bit=33]
c   175: input[bit=32]
c   177: input[bit=31]
c   179: input[bit=30]
c   181: input[bit=29]
c   183: input[bit=28]
c   185: input[bit=27]
c   187: input[bit=26]
c   189: input[bit=25]
c   191: input[bit=24]
c   193: input[bit=23]
c   195: input[bit=22]
c   197: input[bit=21]
c   199: input[bit=20]
c   201: input[bit=19]
c   203: input[bit=18]
c   205: input[bit=17]
c   207: input[bit=16]
c   209: input[bit=15]
c   211: input[bit=14]
c   213: input[bit=13]
c   215: input[bit=12]
c   217: input[bit=11]
c   219: input[bit=10]
c   221: input[bit=9]
c   223: input[bit=8]
c   225: input[bit=7]
c   227: input[bit=6]
c   229: input[bit=5]
c   231: input[bit=4]
c   233: input[bit=3]
c   235: input[bit=2]
c   237: input[bit=1]
c   239: input[bit=0]
c   281: ?
p cnf 281 916
-1 0
-2 -3 0
2 3 0
-4 0
-5 -6 0
5 6 0
-7 0
-8 -9 0
8 9 0
-10 0
-11 -12 0
11 12 0
-13 0
-14 -15 0
14 15 0
-16 0
-17 -18 0
17 18 0
-19 0
-20 -21 0
20 21 0
-22 0
-23 -24 0
23 24 0
-25 0
-26 -27 0
26 27 0
-28 0
-29 -30 0
29 30 0
-31 0
-32 -33 0
32 33 0
-34 0
-35 -36 0
35 36 0
-37 0
-38 -39 0
38 39 0
-40 0
-41 -42 0
41 42 0
-43 0
-44 -45 0
44 45 0
-46 0
-47 -48 0
47 48 0
-49 0
-50 -51 0
50 51 0
-52 0
-53 -54 0
53 54 0
-55 0
-56 -57 0
56 57 0
-58 0
-59 -60 0
59 60 0
-61 0
-62 -63 0
62 63 0
-64 0
-65 -66 0
65 66 0
-67 0
-68 -69 0
68 69 0
-70 0
-71 -72 0
71 72 0
-73 0
-74 -75 0
74 75 0
-76 0
-77 -78 0
77 78 0
-79 0
-80 -81 0
80 81 0
-82 0
-83 -84 0
83 84 0
-85 0
-86 -87 0
86 87 0
-88 0
-89 -90 0
89 90 0
-91 0
-92 -93 0
92 93 0
-94 0
-95 -96 0
95 96 0
-97 0
-98 -99 0
98 99 0
-100 0
-101 -102 0
101 102 0
-103 0
-104 -105 0
104 105 0
-106 0
-107 -108 0
107 108 0
-109 0
-110 -111 0
110 111 0
-112 0
-113 -114 0
113 114 0
-115 0
-116 -117 0
116 117 0
-118 0
-119 -120 0
119 120 0
117 118 -121 0
117 120 -121 0
-118 -120 121 0
118 120 -121 0
-117 -120 121 0
-117 -118 121 0
114 115 -122 0
114 121 -122 0
-115 -121 122 0
115 121 -122 0
-114 -121 122 0
-114 -115 122 0
111 112 -123 0
111 122 -123 0
-112 -122 123 0
112 122 -123 0
-111 -122 123 0
-111 -112 123 0
108 109 -124 0
108 123 -124 0
-109 -123 124 0
109 123 -124 0
-108 -123 124 0
-108 -109 124 0
105 106 -125 0
105 124 -125 0
-106 -124 125 0
106 124 -125 0
-105 -124 125 0
-105 -106 125 0
102 103 -126 0
102 125 -126 0
-103 -125 126 0
103 125 -126 0
-102 -125 126 0
-102 -103 126 0
99 100 -127 0
99 126 -127 0
-100 -126 127 0
100 126 -127 0
-99 -126 127 0
-99 -100 127 0
96 97 -128 0
96 127 -128 0
-97 -127 128 0
97 127 -128 0
-96 -127 128 0
-96 -97 128 0
93 94 -129 0
93 128 -129 0
-94 -128 129 0
94 128 -129 0
-93 -128 129 0
-93 -94 129 0
90 91 -130 0
90 129 -130 0
-91 -129 130 0
91 129 -130 0
-90 -129 130 0
-90 -91 130 0
87 88 -131 0
87 130 -131 0
-88 -130 131 0
88 130 -131 0
-87 -130 131 0
-87 -88 131 0
84 85 -132 0
84 131 -132 0
-85 -131 132 0
85 131 -132 0
-84 -131 132 0
-84 -85 132 0
81 82 -133 0
81 132 -133 0
-82 -132 133 0
82 132 -133 0
-81 -132 133 0
-81 -82 133 0
78 79 -134 0
78 133 -134 0
-79 -133 134 0
79 133 -134 0
-78 -133 134 0
-78 -79 134 0
75 76 -135 0
75 134 -135 0
-76 -134 135 0
76 134 -135 0
-75 -134 135 0
-75 -76 135 0
72 73 -136 0
72 135 -136 0
-73 -135 136 0
73 135 -136 0
-72 -135 136 0
-72 -73 136 0
69 70 -137 0
69 136 -137 0
-70 -136 137 0
70 136 -137 0
-69 -136 137 0
-69 -70 137 0
66 67 -138 0
66 137 -138 0
-67 -137 138 0
67 137 -138 0
-66 -137 138 0
-66 -67 138 0
63 64 -139 0
63 138 -139 0
-64 -138 139 0
64 138 -139 0
-63 -138 139 0
-63 -64 139 0
60 61 -140 0
60 139 -140 0
-61 -139 140 0
61 139 -140 0
-60 -139 140 0
-60 -61 140 0
57 58 -141 0
57 140 -141 0
-58 -140 141 0
58 140 -141 0
-57 -140 141 0
-57 -58 141 0
54 55 -142 0
54 141 -142 0
-55 -141 142 0
55 141 -142 0
-54 -141 142 0
-54 -55 142 0
51 52 -143 0
51 142 -143 0
-52 -142 143 0
52 142 -143 0
-51 -142 143 0
-51 -52 143 0
48 49 -144 0
48 143 -144 0
-49 -143 144 0
49 143 -144 0
-48 -143 144 0
-48 -49 144 0
45 46 -145 0
45 144 -145 0
-46 -144 145 0
46 144 -145 0
-45 -144 145 0
-45 -46 145 0
42 43 -146 0
42 145 -146 0
-43 -145 146 0
43 145 -146 0
-42 -145 146 0
-42 -43 146 0
39 40 -147 0
39 146 -147 0
-40 -146 147 0
40 146 -147 0
-39 -146 147 0
-39 -40 147 0
36 37 -148 0
36 147 -148 0
-37 -147 148 0
37 147 -148 0
-36 -147 148 0
-36 -37 148 0
33 34 -149 0
33 148 -149 0
-34 -148 149 0
34 148 -149 0
-33 -148 149 0
-33 -34 149 0
30 31 -150 0
30 149 -150 0
-31 -149 150 0
31 149 -150 0
-30 -149 150 0
-30 -31 150 0
27 28 -151 0
27 150 -151 0
-28 -150 151 0
28 150 -151 0
-27 -150 151 0
-27 -28 151 0
24 25 -152 0
24 151 -152 0
-25 -151 152 0
25 151 -152 0
-24 -151 152 0
-24 -25 152 0
21 22 -153 0
21 152 -153 0
-22 -152 153 0
22 152 -153 0
-21 -152 153 0
-21 -22 153 0
18 19 -154 0
18 153 -154 0
-19 -153 154 0
19 153 -154 0
-18 -153 154 0
-18 -19 154 0
15 16 -155 0
15 154 -155 0
-16 -154 155 0
16 154 -155 0
-15 -154 155 0
-15 -16 155 0
12 13 -156 0
12 155 -156 0
-13 -155 156 0
13 155 -156 0
-12 -155 156 0
-12 -13 156 0
9 10 -157 0
9 156 -157 0
-10 -156 157 0
10 156 -157 0
-9 -156 157 0
-9 -10 157 0
6 7 -158 0
6 157 -158 0
-7 -157 158 0
7 157 -158 0
-6 -157 158 0
-6 -7 158 0
3 4 -159 0
3 158 -159 0
-4 -158 159 0
4 158 -159 0
-3 -158 159 0
-3 -4 159 0
-159 -160 0
159 160 0
3 4 158 -162 0
3 4 -158 162 0
3 -4 158 162 0
3 -4 -158 -162 0
-3 4 158 162 0
-3 4 -158 -162 0
-3 -4 158 -162 0
-3 -4 -158 162 0
6 7 157 -164 0
6 7 -157 164 0
6 -7 157 164 0
6 -7 -157 -164 0
-6 7 157 164 0
-6 7 -157 -164 0
-6 -7 157 -164 0
-6 -7 -157 164 0
9 10 156 -166 0
9 10 -156 166 0
9 -10 156 166 0
9 -10 -156 -166 0
-9 10 156 166 0
-9 10 -156 -166 0
-9 -10 156 -166 0
-9 -10 -156 166 0
12 13 155 -168 0
12 13 -155 168 0
12 -13 155 168 0
12 -13 -155 -168 0
-12 13 155 168 0
-12 13 -155 -168 0
-12 -13 155 -168 0
-12 -13 -155 168 0
15 16 154 -170 0
15 16 -154 170 0
15 -16 154 170 0
15 -16 -154 -170 0
-15 16 154 170 0
-15 16 -154 -170 0
-15 -16 154 -170 0
-15 -16 -154 170 0
18 19 153 -172 0
18 19 -153 172 0
18 -19 153 172 0
18 -19 -153 -172 0
-18 19 153 172 0
-18 19 -153 -172 0
-18 -19 153 -172 0
-18 -19 -153 172 0
21 22 152 -174 0
21 22 -152 174 0
21 -22 152 174 0
21 -22 -152 -174 0
-21 22 152 174 0
-21 22 -152 -174 0
-21 -22 152 -174 0
-21 -22 -152 174 0
24 25 151 -176 0
24 25 -151 176 0
24 -25 151 176 0
24 -25 -151 -176 0
-24 25 151 176 0
-24 25 -151 -176 0
-24 -25 151 -176 0
-24 -25 -151 176 0
27 28 150 -178 0
27 28 -150 178 0
27 -28 150 178 0
27 -28 -150 -178 0
-27 28 150 178 0
-27 28 -150 -178 0
-27 -28 150 -178 0
-27 -28 -150 178 0
30 31 149 -180 0
30 31 -149 180 0
30 -31 149 180 0
30 -31 -149 -180 0
-30 31 149 180 0
-30 31 -149 -180 0
-30 -31 149 -180 0
-30 -31 -149 180 0
33 34 148 -182 0
33 34 -148 182 0
33 -34 148 182 0
33 -34 -148 -182 0
-33 34 148 182 0
-33 34 -148 -182 0
-33 -34 148 -182 0
-33 -34 -148 182 0
36 37 147 -184 0
36 37 -147 184 0
36 -37 147 184 0
36 -37 -147 -184 0
-36 37 147 184 0
-36 37 -147 -184 0
-36 -37 147 -184 0
-36 -37 -147 184 0
39 40 146 -186 0
39 40 -146 186 0
39 -40 146 186 0
39 -40 -146 -186 0
-39 40 146 186 0
-39 40 -146 -186 0
-39 -40 146 -186 0
-39 -40 -146 186 0
42 43 145 -188 0
42 43 -145 188 0
42 -43 145 188 0
42 -43 -145 -188 0
-42 43 145 188 0
-42 43 -145 -188 0
-42 -43 145 -188 0
-42 -43 -145 188 0
45 46 144 -190 0
45 46 -144 190 0
45 -46 144 190 0
45 -46 -144 -190 0
-45 46 144 190 0
-45 46 -144 -190 0
-45 -46 144 -190 0
-45 -46 -144 190 0
48 49 143 -192 0
48 49 -143 192 0
48 -49 143 192 0
48 -49 -143 -192 0
-48 49 143 192 0
-48 49 -143 -192 0
-48 -49 143 -192 0
-48 -49 -143 192 0
51 52 142 -194 0
51 52 -142 194 0
51 -52 142 194 0
51 -52 -142 -194 0
-51 52 142 194 0
-51 52 -142 -194 0
-51 -52 142 -194 0
-51 -52 -142 194 0
54 55 141 -196 0
54 55 -141 196 0
54 -55 141 196 0
54 -55 -141 -196 0
-54 55 141 196 0
-54 55 -141 -196 0
-54 -55 141 -196 0
-54 -55 -141 196 0
57 58 140 -198 0
57 58 -140 198 0
57 -58 140 198 0
57 -58 -140 -198 0
-57 58 140 198 0
-57 58 -140 -198 0
-57 -58 140 -198 0
-57 -58 -140 198 0
60 61 139 -200 0
60 61 -139 200 0
60 -61 139 200 0
60 -61 -139 -200 0
-60 61 139 200 0
-60 61 -139 -200 0
-60 -61 139 -200 0
-60 -61 -139 200 0
63 64 138 -202 0
63 64 -138 202 0
63 -64 138 202 0
63 -64 -138 -202 0
-63 64 138 202 0
-63 64 -138 -202 0
-63 -64 138 -202 0
-63 -64 -138 202 0
66 67 137 -204 0
66 67 -137 204 0
66 -67 137 204 0
66 -67 -137 -204 0
-66 67 137 204 0
-66 67 -137 -204 0
-66 -67 137 -204 0
-66 -67 -137 204 0
69 70 136 -206 0
69 70 -136 206 0
69 -70 136 206 0
69 -70 -136 -206 0
-69 70 136 206 0
-69 70 -136 -206 0
-69 -70 136 -206 0
-69 -70 -136 206 0
72 73 135 -208 0
72 73 -135 208 0
72 -73 135 208 0
72 -73 -135 -208 0
-72 73 135 208 0
-72 73 -135 -208 0
-72 -73 135 -208 0
-72 -73 -135 208 0
75 76 134 -210 0
75 76 -134 210 0
75 -76 134 210 0
75 -76 -134 -210 0
-75 76 134 210 0
-75 76 -134 -210 0
-75 -76 134 -210 0
-75 -76 -134 210 0
78 79 133 -212 0
78 79 -133 212 0
78 -79 133 212 0
78 -79 -133 -212 0
-78 79 133 212 0
-78 79 -133 -212 0
-78 -79 133 -212 0
-78 -79 -133 212 0
81 82 132 -214 0
81 82 -132 214 0
81 -82 132 214 0
81 -82 -132 -214 0
-81 82 132 214 0
-81 82 -132 -214 0
-81 -82 132 -214 0
-81 -82 -132 214 0
84 85 131 -216 0
84 85 -131 216 0
84 -85 131 216 0
84 -85 -131 -216 0
-84 85 131 216 0
-84 85 -131 -216 0
-84 -85 131 -216 0
-84 -85 -131 216 0
87 88 130 -218 0
87 88 -130 218 0
87 -88 130 218 0
87 -88 -130 -218 0
-87 88 130 218 0
-87 88 -130 -218 0
-87 -88 130 -218 0
-87 -88 -130 218 0
90 91 129 -220 0
90 91 -129 220 0
90 -91 129 220 0
90 -91 -129 -220 0
-90 91 129 220 0
-90 91 -129 -220 0
-90 -91 129 -220 0
-90 -91 -129 220 0
93 94 128 -222 0
93 94 -128 222 0
93 -94 128 222 0
93 -94 -128 -222 0
-93 94 128 222 0
-93 94 -128 -222 0
-93 -94 128 -222 0
-93 -94 -128 222 0
96 97 127 -224 0
96 97 -127 224 0
96 -97 127 224 0
96 -97 -127 -224 0
-96 97 127 224 0
-96 97 -127 -224 0
-96 -97 127 -224 0
-96 -97 -127 224 0
99 100 126 -226 0
99 100 -126 226 0
99 -100 126 226 0
99 -100 -126 -226 0
-99 100 126 226 0
-99 100 -126 -226 0
-99 -100 126 -226 0
-99 -100 -126 226 0
102 103 125 -228 0
102 103 -125 228 0
102 -103 125 228 0
102 -103 -125 -228 0
-102 103 125 228 0
-102 103 -125 -228 0
-102 -103 125 -228 0
-102 -103 -125 228 0
105 106 124 -230 0
105 106 -124 230 0
105 -106 124 230 0
105 -106 -124 -230 0
-105 106 124 230 0
-105 106 -124 -230 0
-105 -106 124 -230 0
-105 -106 -124 230 0
108 109 123 -232 0
108 109 -123 232 0
108 -109 123 232 0
108 -109 -123 -232 0
-108 109 123 232 0
-108 109 -123 -232 0
-108 -109 123 -232 0
-108 -109 -123 232 0
111 112 122 -234 0
111 112 -122 234 0
111 -112 122 234 0
111 -112 -122 -234 0
-111 112 122 234 0
-111 112 -122 -234 0
-111 -112 122 -234 0
-111 -112 -122 234 0
114 115 121 -236 0
114 115 -121 236 0
114 -115 121 236 0
114 -115 -121 -236 0
-114 115 121 236 0
-114 115 -121 -236 0
-114 -115 121 -236 0
-114 -115 -121 236 0
117 118 120 -238 0
117 118 -120 238 0
117 -118 120 238 0
117 -118 -120 -238 0
-117 118 120 238 0
-117 118 -120 -238 0
-117 -118 120 -238 0
-117 -118 -120 238 0
-120 -240 0
120 240 0
-239 -240 241 0
239 -241 0
240 -241 0
237 238 -242 0
237 241 -242 0
-238 -241 242 0
238 241 -242 0
-237 -241 242 0
-237 -238 242 0
235 236 -243 0
235 242 -243 0
-236 -242 243 0
236 242 -243 0
-235 -242 243 0
-235 -236 243 0
233 234 -244 0
233 243 -244 0
-234 -243 244 0
234 243 -244 0
-233 -243 244 0
-233 -234 244 0
231 232 -245 0
231 244 -245 0
-232 -244 245 0
232 244 -245 0
-231 -244 245 0
-231 -232 245 0
229 230 -246 0
229 245 -246 0
-230 -245 246 0
230 245 -246 0
-229 -245 246 0
-229 -230 246 0
227 228 -247 0
227 246 -247 0
-228 -246 247 0
228 246 -247 0
-227 -246 247 0
-227 -228 247 0
225 226 -248 0
225 247 -248 0
-226 -247 248 0
226 247 -248 0
-225 -247 248 0
-225 -226 248 0
223 224 -249 0
223 248 -249 0
-224 -248 249 0
224 248 -249 0
-223 -248 249 0
-223 -224 249 0
221 222 -250 0
221 249 -250 0
-222 -249 250 0
222 249 -250 0
-221 -249 250 0
-221 -222 250 0
219 220 -251 0
219 250 -251 0
-220 -250 251 0
220 250 -251 0
-219 -250 251 0
-219 -220 251 0
217 218 -252 0
217 251 -252 0
-218 -251 252 0
218 251 -252 0
-217 -251 252 0
-217 -218 252 0
215 216 -253 0
215 252 -253 0
-216 -252 253 0
216 252 -253 0
-215 -252 253 0
-215 -216 253 0
213 214 -254 0
213 253 -254 0
-214 -253 254 0
214 253 -254 0
-213 -253 254 0
-213 -214 254 0
211 212 -255 0
211 254 -255 0
-212 -254 255 0
212 254 -255 0
-211 -254 255 0
-211 -212 255 0
209 210 -256 0
209 255 -256 0
-210 -255 256 0
210 255 -256 0
-209 -255 256 0
-209 -210 256 0
207 208 -257 0
207 256 -257 0
-208 -256 257 0
208 256 -257 0
-207 -256 257 0
-207 -208 257 0
205 206 -258 0
205 257 -258 0
-206 -257 258 0
206 257 -258 0
-205 -257 258 0
-205 -206 258 0
203 204 -259 0
203 258 -259 0
-204 -258 259 0
204 258 -259 0
-203 -258 259 0
-203 -204 259 0
201 202 -260 0
201 259 -260 0
-202 -259 260 0
202 259 -260 0
-201 -259 260 0
-201 -202 260 0
199 200 -261 0
199 260 -261 0
-200 -260 261 0
200 260 -261 0
-199 -260 261 0
-199 -200 261 0
197 198 -262 0
197 261 -262 0
-198 -261 262 0
198 261 -262 0
-197 -261 262 0
-197 -198 262 0
195 196 -263 0
195 262 -263 0
-196 -262 263 0
196 262 -263 0
-195 -262 263 0
-195 -196 263 0
193 194 -264 0
193 263 -264 0
-194 -263 264 0
194 263 -264 0
-193 -263 264 0
-193 -194 264 0
191 192 -265 0
191 264 -265 0
-192 -264 265 0
192 264 -265 0
-191 -264 265 0
-191 -192 265 0
189 190 -266 0
189 265 -266 0
-190 -265 266 0
190 265 -266 0
-189 -265 266 0
-189 -190 266 0
187 188 -267 0
187 266 -267 0
-188 -266 267 0
188 266 -267 0
-187 -266 267 0
-187 -188 267 0
185 186 -268 0
185 267 -268 0
-186 -267 268 0
186 267 -268 0
-185 -267 268 0
-185 -186 268 0
183 184 -269 0
183 268 -269 0
-184 -268 269 0
184 268 -269 0
-183 -268 269 0
-183 -184 269 0
181 182 -270 0
181 269 -270 0
-182 -269 270 0
182 269 -270 0
-181 -269 270 0
-181 -182 270 0
179 180 -271 0
179 270 -271 0
-180 -270 271 0
180 270 -271 0
-179 -270 271 0
-179 -180 271 0
177 178 -272 0
177 271 -272 0
-178 -271 272 0
178 271 -272 0
-177 -271 272 0
-177 -178 272 0
175 176 -273 0
175 272 -273 0
-176 -272 273 0
176 272 -273 0
-175 -272 273 0
-175 -176 273 0
173 174 -274 0
173 273 -274 0
-174 -273 274 0
174 273 -274 0
-173 -273 274 0
-173 -174 274 0
171 172 -275 0
171 274 -275 0
-172 -274 275 0
172 274 -275 0
-171 -274 275 0
-171 -172 275 0
169 170 -276 0
169 275 -276 0
-170 -275 276 0
170 275 -276 0
-169 -275 276 0
-169 -170 276 0
167 168 -277 0
167 276 -277 0
-168 -276 277 0
168 276 -277 0
-167 -276 277 0
-167 -168 277 0
165 166 -278 0
165 277 -278 0
-166 -277 278 0
166 277 -278 0
-165 -277 278 0
-165 -166 278 0
163 164 -279 0
163 278 -279 0
-164 -278 279 0
164 278 -279 0
-163 -278 279 0
-163 -164 279 0
161 162 -280 0
161 279 -280 0
-162 -279 280 0
162 279 -280 0
-161 -279 280 0
-161 -162 280 0
1 160 280 -281 0
1 160 -280 281 0
1 -160 280 281 0
1 -160 -280 -281 0
-1 160 280 281 0
-1 160 -280 -281 0
-1 -160 280 -281 0
-1 -160 -280 281 0
281 0
